\ENCODING=ISO-8859-1
\Problem name: ilog.cplex

Minimize
 obj1: 96743 x1 + 105065 x2 + 94495 x3 + 108306 x4 + 103953 x5 + 102608 x6
       + 95768 x7 + 106803 x8 + 95168 x9 + 92711 x10 + 101640 x11 + 103035 x12
       + 92949 x13 + 100669 x14 + 101281 x15 + 100160 x16 + 104151 x17
       + 103413 x18 + 104016 x19 + 90992 x20 + 105745 x21 + 107203 x22
       + 103112 x23 + 108799 x24 + 97410 x25 + 103866 x26 + 101608 x27
       + 107229 x28 + 90898 x29 + 102309 x30 + 99218 x31 + 95416 x32
       + 105618 x33 + 98396 x34 + 104013 x35 + 98601 x36 + 94856 x37
       + 93366 x38 + 102961 x39 + 109424 x40 + 97729 x41 + 98635 x42
       + 101323 x43 + 100572 x44 + 98215 x45 + 93124 x46 + 102514 x47
       + 105547 x48 + 94521 x49 + 108179 x50 + 107231 x51 + 101071 x52
       + 99534 x53 + 104706 x54 + 103474 x55 + 102012 x56 + 106297 x57
       + 97319 x58 + 97572 x59 + 107706 x60 + 97132 x61 + 91703 x62
       + 107923 x63 + 92499 x64 + 99692 x65 + 96522 x66 + 91648 x67
       + 107830 x68 + 108144 x69 + 99608 x70 + 93538 x71 + 95486 x72
       + 90794 x73 + 103345 x74 + 93343 x75 + 106955 x76 + 101100 x77
       + 101012 x78 + 104798 x79 + 107388 x80 + 94630 x81 + 92233 x82
       + 109120 x83 + 107844 x84 + 105656 x85 + 102923 x86 + 95218 x87
       + 98726 x88 + 108652 x89 + 105081 x90 + 101106 x91 + 93742 x92
       + 93588 x93 + 101161 x94 + 107443 x95 + 108435 x96 + 98147 x97
       + 102761 x98 + 91190 x99 + 97649 x100 + 104849 x101 + 94044 x102
       + 105035 x103 + 102252 x104 + 106566 x105 + 106543 x106 + 106539 x107
       + 107047 x108 + 90010 x109 + 103911 x110 + 99884 x111 + 108958 x112
       + 103529 x113 + 102705 x114 + 92661 x115 + 97463 x116 + 102905 x117
       + 98420 x118 + 90303 x119 + 97676 x120 + 100553 x121 + 102315 x122
       + 108598 x123 + 109904 x124 + 104434 x125 + 99717 x126 + 92841 x127
       + 107616 x128 + 97434 x129 + 106507 x130 + 105575 x131 + 92323 x132
       + 101180 x133 + 109941 x134 + 94486 x135 + 108646 x136 + 92946 x137
       + 109466 x138 + 102970 x139 + 101868 x140 + 105471 x141 + 101635 x142
       + 96605 x143 + 94916 x144 + 91559 x145 + 92654 x146 + 96869 x147
       + 105183 x148 + 94024 x149 + 96608 x150 + 102762 x151 + 93498 x152
       + 100626 x153 + 91102 x154 + 100364 x155 + 103993 x156 + 108346 x157
       + 106232 x158 + 95413 x159 + 100651 x160 + 91684 x161 + 97691 x162
       + 94587 x163 + 94010 x164 + 105628 x165 + 100309 x166 + 107492 x167
       + 99780 x168 + 95501 x169 + 94423 x170 + 103209 x171 + 100084 x172
       + 93129 x173 + 104216 x174 + 92808 x175 + 107548 x176 + 91584 x177
       + 104534 x178 + 102351 x179 + 102674 x180 + 105719 x181 + 97845 x182
       + 104262 x183 + 102853 x184 + 95712 x185 + 99378 x186 + 97496 x187
       + 97435 x188 + 101323 x189 + 91117 x190 + 98100 x191 + 106868 x192
       + 100949 x193 + 100120 x194 + 107535 x195 + 109703 x196 + 102696 x197
       + 94250 x198 + 106370 x199 + 105722 x200 + 108850 x201 + 109419 x202
       + 92332 x203 + 94838 x204 + 104000 x205 + 90457 x206 + 98939 x207
       + 90998 x208 + 101124 x209 + 106468 x210 + 105631 x211 + 97029 x212
       + 95784 x213 + 90645 x214 + 93902 x215 + 95804 x216 + 94963 x217
       + 109201 x218 + 98178 x219 + 98099 x220 + 104170 x221 + 104408 x222
       + 105074 x223 + 108157 x224 + 94069 x225 + 102705 x226 + 90106 x227
       + 104258 x228 + 106240 x229 + 90402 x230 + 107102 x231 + 103467 x232
       + 96549 x233 + 96728 x234 + 102237 x235 + 107288 x236 + 94209 x237
       + 106795 x238 + 92038 x239 + 108044 x240 + 94623 x241 + 105947 x242
       + 107508 x243 + 96195 x244 + 90600 x245 + 107131 x246 + 108070 x247
       + 109713 x248 + 107757 x249 + 104450 x250 + 94930 x251 + 101117 x252
       + 103695 x253 + 107208 x254 + 92322 x255 + 98279 x256 + 93465 x257
       + 93812 x258 + 104830 x259 + 97485 x260 + 102079 x261 + 99711 x262
       + 90955 x263 + 99768 x264 + 97250 x265 + 104305 x266 + 104158 x267
       + 105799 x268 + 109873 x269 + 98971 x270 + 102542 x271 + 93063 x272
       + 93511 x273 + 104117 x274 + 107444 x275 + 92648 x276 + 93571 x277
       + 109663 x278 + 95931 x279 + 107188 x280 + 91848 x281 + 100346 x282
       + 102487 x283 + 106417 x284 + 102776 x285 + 94944 x286 + 101164 x287
       + 102220 x288 + 103983 x289 + 96820 x290 + 101055 x291 + 101233 x292
       + 105659 x293 + 102096 x294 + 95122 x295 + 99741 x296 + 100739 x297
       + 101326 x298 + 95284 x299 - 62497 x300 + 214124 x301 + 211350 x302
       + 189632 x303 + 207944 x304 + 186418 x305 + 216858 x306 + 190348 x307
       + 186206 x308 + 210323 x309 + 192627 x310 + 204678 x311 + 201455 x312
       + 197968 x313 + 192576 x314 + 212038 x315 + 210238 x316 + 184246 x317
       + 201390 x318 + 218191 x319 + 203876 x320 + 186406 x321 + 185961 x322
       + 190357 x323 + 211760 x324 + 192522 x325 + 190011 x326 + 192212 x327
       + 189543 x328 + 206742 x329 + 194226 x330 + 180125 x331 + 180341 x332
       + 192031 x333 + 194243 x334 + 211693 x335 + 188946 x336 + 187766 x337
       + 212619 x338 + 211128 x339 + 214758 x340 + 199857 x341 + 198473 x342
       + 213259 x343 + 208535 x344 + 185198 x345 + 219747 x346 + 208901 x347
       + 191207 x348 + 180077 x349 + 218108 x350 + 219061 x351 + 199964 x352
       + 193797 x353 + 195266 x354 + 193945 x355 + 187437 x356 + 184109 x357
       + 192059 x358 + 204918 x359 + 260206 x360
Subject To
 c1:   x1 - x2 + x3 - x5 + x23 + x37 - x43 - x50 + x52 + x53 + x54 + x55  = 0
 c2:   x61 - x62 + x63 - x65 + x83 + x97 - x103 - x110 + x112 + x113 + x114
       + x115  = 1
 c3:   x121 - x122 + x123 - x125 + x143 + x157 - x163 - x170 + x172 + x173
       + x174 + x175  = -1
 c4:   x181 - x182 + x183 - x185 + x203 + x217 - x223 - x230 + x232 + x233
       + x234 + x235  = 0
 c5:   x241 - x242 + x243 - x245 + x263 + x277 - x283 - x290 + x292 + x293
       + x294 + x295  = 0
 c6:   - x9 + x15 - x16 + x18 - x20 + x21 - x22 - x26 + x33 + x49 + x51 - x52
       + x56  = 0
 c7:   - x69 + x75 - x76 + x78 - x80 + x81 - x82 - x86 + x93 + x109 + x111
       - x112 + x116  = 0
 c8:   - x129 + x135 - x136 + x138 - x140 + x141 - x142 - x146 + x153 + x169
       + x171 - x172 + x176  = 0
 c9:   - x189 + x195 - x196 + x198 - x200 + x201 - x202 - x206 + x213 + x229
       + x231 - x232 + x236  = 0
 c10:  - x249 + x255 - x256 + x258 - x260 + x261 - x262 - x266 + x273 + x289
       + x291 - x292 + x296  = 0
 c11:  x4 - x18 - x19 - x25 + x28 - x40 + x50 - x53 - x58 + x59 - x60  = 0
 c12:  x64 - x78 - x79 - x85 + x88 - x100 + x110 - x113 - x118 + x119 - x120
        = 0
 c13:  x124 - x138 - x139 - x145 + x148 - x160 + x170 - x173 - x178 + x179
       - x180  = 0
 c14:  x184 - x198 - x199 - x205 + x208 - x220 + x230 - x233 - x238 + x239
       - x240  = 0
 c15:  x244 - x258 - x259 - x265 + x268 - x280 + x290 - x293 - x298 + x299
       - x300  = 1
 c16:  x10 - x11 + x12 + x16 + x31 - x33 - x35 + x41 - x47 - x55 + x57 + x60
        = 0
 c17:  x70 - x71 + x72 + x76 + x91 - x93 - x95 + x101 - x107 - x115 + x117
       + x120  = 0
 c18:  x130 - x131 + x132 + x136 + x151 - x153 - x155 + x161 - x167 - x175
       + x177 + x180  = 0
 c19:  x190 - x191 + x192 + x196 + x211 - x213 - x215 + x221 - x227 - x235
       + x237 + x240  = 0
 c20:  x250 - x251 + x252 + x256 + x271 - x273 - x275 + x281 - x287 - x295
       + x297 + x300  = 0
 c21:  - x7 + x8 + x11 + x19 - x31 - x34 - x36 + x39 + x48 - x51  = -1
 c22:  - x67 + x68 + x71 + x79 - x91 - x94 - x96 + x99 + x108 - x111  = 0
 c23:  - x127 + x128 + x131 + x139 - x151 - x154 - x156 + x159 + x168 - x171
        = 0
 c24:  - x187 + x188 + x191 + x199 - x211 - x214 - x216 + x219 + x228 - x231
        = 0
 c25:  - x247 + x248 + x251 + x259 - x271 - x274 - x276 + x279 + x288 - x291
        = 0
 c26:  - x3 - x15 + x25 - x29 + x32 + x35 + x38 - x41 + x43 - x44 + x46  = 0
 c27:  - x63 - x75 + x85 - x89 + x92 + x95 + x98 - x101 + x103 - x104 + x106
        = -1
 c28:  - x123 - x135 + x145 - x149 + x152 + x155 + x158 - x161 + x163 - x164
       + x166  = 0
 c29:  - x183 - x195 + x205 - x209 + x212 + x215 + x218 - x221 + x223 - x224
       + x226  = 1
 c30:  - x243 - x255 + x265 - x269 + x272 + x275 + x278 - x281 + x283 - x284
       + x286  = 0
 c31:  - x6 - x12 + x14 + x17 + x20 - x30 + x34 + x40 - x46 - x54 - x56  = 0
 c32:  - x66 - x72 + x74 + x77 + x80 - x90 + x94 + x100 - x106 - x114 - x116
        = 0
 c33:  - x126 - x132 + x134 + x137 + x140 - x150 + x154 + x160 - x166 - x174
       - x176  = 0
 c34:  - x186 - x192 + x194 + x197 + x200 - x210 + x214 + x220 - x226 - x234
       - x236  = 0
 c35:  - x246 - x252 + x254 + x257 + x260 - x270 + x274 + x280 - x286 - x294
       - x296  = -1
 c36:  x6 + x9 + x13 - x17 + x24 - x28 - x32 + x36 - x37 - x39 - x42 + x44
       - x49  = 0
 c37:  x66 + x69 + x73 - x77 + x84 - x88 - x92 + x96 - x97 - x99 - x102 + x104
       - x109  = 0
 c38:  x126 + x129 + x133 - x137 + x144 - x148 - x152 + x156 - x157 - x159
       - x162 + x164 - x169  = 1
 c39:  x186 + x189 + x193 - x197 + x204 - x208 - x212 + x216 - x217 - x219
       - x222 + x224 - x229  = 0
 c40:  x246 + x249 + x253 - x257 + x264 - x268 - x272 + x276 - x277 - x279
       - x282 + x284 - x289  = 0
 c41:  x2 - x4 + x7 - x10 - x23 - x24 + x26 - x27 - x38 + x42 + x45 - x48  = 1
 c42:  x62 - x64 + x67 - x70 - x83 - x84 + x86 - x87 - x98 + x102 + x105 - x108
        = 0
 c43:  x122 - x124 + x127 - x130 - x143 - x144 + x146 - x147 - x158 + x162
       + x165 - x168  = 0
 c44:  x182 - x184 + x187 - x190 - x203 - x204 + x206 - x207 - x218 + x222
       + x225 - x228  = 0
 c45:  x242 - x244 + x247 - x250 - x263 - x264 + x266 - x267 - x278 + x282
       + x285 - x288  = 0
 c46:  - x1 + x5 - x8 - x13 - x14 - x21 + x22 + x27 + x29 + x30 - x45 + x47
       - x57 + x58 - x59  = 0
 c47:  - x61 + x65 - x68 - x73 - x74 - x81 + x82 + x87 + x89 + x90 - x105
       + x107 - x117 + x118 - x119  = 0
 c48:  - x121 + x125 - x128 - x133 - x134 - x141 + x142 + x147 + x149 + x150
       - x165 + x167 - x177 + x178 - x179  = 0
 c49:  - x181 + x185 - x188 - x193 - x194 - x201 + x202 + x207 + x209 + x210
       - x225 + x227 - x237 + x238 - x239  = -1
 c50:  - x241 + x245 - x248 - x253 - x254 - x261 + x262 + x267 + x269 + x270
       - x285 + x287 - x297 + x298 - x299  = 0
 c51:  4 x1 + 4 x61 + 4 x121 + 4 x181 + 4 x241 - 2 x301 <= 0
 c52:  4 x2 + 4 x62 + 4 x122 + 4 x182 + 4 x242 - 2 x302 <= 0
 c53:  4 x3 + 4 x63 + 4 x123 + 4 x183 + 4 x243 - 2 x303 <= 0
 c54:  4 x4 + 4 x64 + 4 x124 + 4 x184 + 4 x244 - 2 x304 <= 0
 c55:  4 x5 + 4 x65 + 4 x125 + 4 x185 + 4 x245 - 2 x305 <= 0
 c56:  4 x6 + 4 x66 + 4 x126 + 4 x186 + 4 x246 - 2 x306 <= 0
 c57:  4 x7 + 4 x67 + 4 x127 + 4 x187 + 4 x247 - 2 x307 <= 0
 c58:  4 x8 + 4 x68 + 4 x128 + 4 x188 + 4 x248 - 2 x308 <= 0
 c59:  4 x9 + 4 x69 + 4 x129 + 4 x189 + 4 x249 - 2 x309 <= 0
 c60:  4 x10 + 4 x70 + 4 x130 + 4 x190 + 4 x250 - 2 x310 <= 0
 c61:  4 x11 + 4 x71 + 4 x131 + 4 x191 + 4 x251 - 2 x311 <= 0
 c62:  4 x12 + 4 x72 + 4 x132 + 4 x192 + 4 x252 - 2 x312 <= 0
 c63:  4 x13 + 4 x73 + 4 x133 + 4 x193 + 4 x253 - 2 x313 <= 0
 c64:  4 x14 + 4 x74 + 4 x134 + 4 x194 + 4 x254 - 2 x314 <= 0
 c65:  4 x15 + 4 x75 + 4 x135 + 4 x195 + 4 x255 - 2 x315 <= 0
 c66:  4 x16 + 4 x76 + 4 x136 + 4 x196 + 4 x256 - 2 x316 <= 0
 c67:  4 x17 + 4 x77 + 4 x137 + 4 x197 + 4 x257 - 2 x317 <= 0
 c68:  4 x18 + 4 x78 + 4 x138 + 4 x198 + 4 x258 - 2 x318 <= 0
 c69:  4 x19 + 4 x79 + 4 x139 + 4 x199 + 4 x259 - 2 x319 <= 0
 c70:  4 x20 + 4 x80 + 4 x140 + 4 x200 + 4 x260 - 2 x320 <= 0
 c71:  4 x21 + 4 x81 + 4 x141 + 4 x201 + 4 x261 - 2 x321 <= 0
 c72:  4 x22 + 4 x82 + 4 x142 + 4 x202 + 4 x262 - 2 x322 <= 0
 c73:  4 x23 + 4 x83 + 4 x143 + 4 x203 + 4 x263 - 2 x323 <= 0
 c74:  4 x24 + 4 x84 + 4 x144 + 4 x204 + 4 x264 - 2 x324 <= 0
 c75:  4 x25 + 4 x85 + 4 x145 + 4 x205 + 4 x265 - 2 x325 <= 0
 c76:  4 x26 + 4 x86 + 4 x146 + 4 x206 + 4 x266 - 2 x326 <= 0
 c77:  4 x27 + 4 x87 + 4 x147 + 4 x207 + 4 x267 - 2 x327 <= 0
 c78:  4 x28 + 4 x88 + 4 x148 + 4 x208 + 4 x268 - 2 x328 <= 0
 c79:  4 x29 + 4 x89 + 4 x149 + 4 x209 + 4 x269 - 2 x329 <= 0
 c80:  4 x30 + 4 x90 + 4 x150 + 4 x210 + 4 x270 - 2 x330 <= 0
 c81:  4 x31 + 4 x91 + 4 x151 + 4 x211 + 4 x271 - 2 x331 <= 0
 c82:  4 x32 + 4 x92 + 4 x152 + 4 x212 + 4 x272 - 2 x332 <= 0
 c83:  4 x33 + 4 x93 + 4 x153 + 4 x213 + 4 x273 - 2 x333 <= 0
 c84:  4 x34 + 4 x94 + 4 x154 + 4 x214 + 4 x274 - 2 x334 <= 0
 c85:  4 x35 + 4 x95 + 4 x155 + 4 x215 + 4 x275 - 2 x335 <= 0
 c86:  4 x36 + 4 x96 + 4 x156 + 4 x216 + 4 x276 - 2 x336 <= 0
 c87:  4 x37 + 4 x97 + 4 x157 + 4 x217 + 4 x277 - 2 x337 <= 0
 c88:  4 x38 + 4 x98 + 4 x158 + 4 x218 + 4 x278 - 2 x338 <= 0
 c89:  4 x39 + 4 x99 + 4 x159 + 4 x219 + 4 x279 - 2 x339 <= 0
 c90:  4 x40 + 4 x100 + 4 x160 + 4 x220 + 4 x280 - 2 x340 <= 0
 c91:  4 x41 + 4 x101 + 4 x161 + 4 x221 + 4 x281 - 2 x341 <= 0
 c92:  4 x42 + 4 x102 + 4 x162 + 4 x222 + 4 x282 - 2 x342 <= 0
 c93:  4 x43 + 4 x103 + 4 x163 + 4 x223 + 4 x283 - 2 x343 <= 0
 c94:  4 x44 + 4 x104 + 4 x164 + 4 x224 + 4 x284 - 2 x344 <= 0
 c95:  4 x45 + 4 x105 + 4 x165 + 4 x225 + 4 x285 - 2 x345 <= 0
 c96:  4 x46 + 4 x106 + 4 x166 + 4 x226 + 4 x286 - 2 x346 <= 0
 c97:  4 x47 + 4 x107 + 4 x167 + 4 x227 + 4 x287 - 2 x347 <= 0
 c98:  4 x48 + 4 x108 + 4 x168 + 4 x228 + 4 x288 - 2 x348 <= 0
 c99:  4 x49 + 4 x109 + 4 x169 + 4 x229 + 4 x289 - 2 x349 <= 0
 c100: 4 x50 + 4 x110 + 4 x170 + 4 x230 + 4 x290 - 2 x350 <= 0
 c101: 4 x51 + 4 x111 + 4 x171 + 4 x231 + 4 x291 - 2 x351 <= 0
 c102: 4 x52 + 4 x112 + 4 x172 + 4 x232 + 4 x292 - 2 x352 <= 0
 c103: 4 x53 + 4 x113 + 4 x173 + 4 x233 + 4 x293 - 2 x353 <= 0
 c104: 4 x54 + 4 x114 + 4 x174 + 4 x234 + 4 x294 - 2 x354 <= 0
 c105: 4 x55 + 4 x115 + 4 x175 + 4 x235 + 4 x295 - 2 x355 <= 0
 c106: 4 x56 + 4 x116 + 4 x176 + 4 x236 + 4 x296 - 2 x356 <= 0
 c107: 4 x57 + 4 x117 + 4 x177 + 4 x237 + 4 x297 - 2 x357 <= 0
 c108: 4 x58 + 4 x118 + 4 x178 + 4 x238 + 4 x298 - 2 x358 <= 0
 c109: 4 x59 + 4 x119 + 4 x179 + 4 x239 + 4 x299 - 2 x359 <= 0
 c110: 4 x60 + 4 x120 + 4 x180 + 4 x240 + 4 x300 - 2 x360 <= 0
Bounds
 0 <= x1 <= 1
 0 <= x2 <= 1
 0 <= x3 <= 1
 0 <= x4 <= 1
 0 <= x5 <= 1
 0 <= x6 <= 1
 0 <= x7 <= 1
 0 <= x8 <= 1
 0 <= x9 <= 1
 0 <= x10 <= 1
 0 <= x11 <= 1
 0 <= x12 <= 1
 0 <= x13 <= 1
 0 <= x14 <= 1
 0 <= x15 <= 1
 0 <= x16 <= 1
 0 <= x17 <= 1
 0 <= x18 <= 1
 0 <= x19 <= 1
 0 <= x20 <= 1
 0 <= x21 <= 1
 0 <= x22 <= 1
 0 <= x23 <= 1
 0 <= x24 <= 1
 0 <= x25 <= 1
 0 <= x26 <= 1
 0 <= x27 <= 1
 0 <= x28 <= 1
 0 <= x29 <= 1
 0 <= x30 <= 1
 0 <= x31 <= 1
 0 <= x32 <= 1
 0 <= x33 <= 1
 0 <= x34 <= 1
 0 <= x35 <= 1
 0 <= x36 <= 1
 0 <= x37 <= 1
 0 <= x38 <= 1
 0 <= x39 <= 1
 0 <= x40 <= 1
 0 <= x41 <= 1
 0 <= x42 <= 1
 0 <= x43 <= 1
 0 <= x44 <= 1
 0 <= x45 <= 1
 0 <= x46 <= 1
 0 <= x47 <= 1
 0 <= x48 <= 1
 0 <= x49 <= 1
 0 <= x50 <= 1
 0 <= x51 <= 1
 0 <= x52 <= 1
 0 <= x53 <= 1
 0 <= x54 <= 1
 0 <= x55 <= 1
 0 <= x56 <= 1
 0 <= x57 <= 1
 0 <= x58 <= 1
 0 <= x59 <= 1
 0 <= x60 <= 1
 0 <= x61 <= 1
 0 <= x62 <= 1
 0 <= x63 <= 1
 0 <= x64 <= 1
 0 <= x65 <= 1
 0 <= x66 <= 1
 0 <= x67 <= 1
 0 <= x68 <= 1
 0 <= x69 <= 1
 0 <= x70 <= 1
 0 <= x71 <= 1
 0 <= x72 <= 1
 0 <= x73 <= 1
 0 <= x74 <= 1
 0 <= x75 <= 1
 0 <= x76 <= 1
 0 <= x77 <= 1
 0 <= x78 <= 1
 0 <= x79 <= 1
 0 <= x80 <= 1
 0 <= x81 <= 1
 0 <= x82 <= 1
 0 <= x83 <= 1
 0 <= x84 <= 1
 0 <= x85 <= 1
 0 <= x86 <= 1
 0 <= x87 <= 1
 0 <= x88 <= 1
 0 <= x89 <= 1
 0 <= x90 <= 1
 0 <= x91 <= 1
 0 <= x92 <= 1
 0 <= x93 <= 1
 0 <= x94 <= 1
 0 <= x95 <= 1
 0 <= x96 <= 1
 0 <= x97 <= 1
 0 <= x98 <= 1
 0 <= x99 <= 1
 0 <= x100 <= 1
 0 <= x101 <= 1
 0 <= x102 <= 1
 0 <= x103 <= 1
 0 <= x104 <= 1
 0 <= x105 <= 1
 0 <= x106 <= 1
 0 <= x107 <= 1
 0 <= x108 <= 1
 0 <= x109 <= 1
 0 <= x110 <= 1
 0 <= x111 <= 1
 0 <= x112 <= 1
 0 <= x113 <= 1
 0 <= x114 <= 1
 0 <= x115 <= 1
 0 <= x116 <= 1
 0 <= x117 <= 1
 0 <= x118 <= 1
 0 <= x119 <= 1
 0 <= x120 <= 1
 0 <= x121 <= 1
 0 <= x122 <= 1
 0 <= x123 <= 1
 0 <= x124 <= 1
 0 <= x125 <= 1
 0 <= x126 <= 1
 0 <= x127 <= 1
 0 <= x128 <= 1
 0 <= x129 <= 1
 0 <= x130 <= 1
 0 <= x131 <= 1
 0 <= x132 <= 1
 0 <= x133 <= 1
 0 <= x134 <= 1
 0 <= x135 <= 1
 0 <= x136 <= 1
 0 <= x137 <= 1
 0 <= x138 <= 1
 0 <= x139 <= 1
 0 <= x140 <= 1
 0 <= x141 <= 1
 0 <= x142 <= 1
 0 <= x143 <= 1
 0 <= x144 <= 1
 0 <= x145 <= 1
 0 <= x146 <= 1
 0 <= x147 <= 1
 0 <= x148 <= 1
 0 <= x149 <= 1
 0 <= x150 <= 1
 0 <= x151 <= 1
 0 <= x152 <= 1
 0 <= x153 <= 1
 0 <= x154 <= 1
 0 <= x155 <= 1
 0 <= x156 <= 1
 0 <= x157 <= 1
 0 <= x158 <= 1
 0 <= x159 <= 1
 0 <= x160 <= 1
 0 <= x161 <= 1
 0 <= x162 <= 1
 0 <= x163 <= 1
 0 <= x164 <= 1
 0 <= x165 <= 1
 0 <= x166 <= 1
 0 <= x167 <= 1
 0 <= x168 <= 1
 0 <= x169 <= 1
 0 <= x170 <= 1
 0 <= x171 <= 1
 0 <= x172 <= 1
 0 <= x173 <= 1
 0 <= x174 <= 1
 0 <= x175 <= 1
 0 <= x176 <= 1
 0 <= x177 <= 1
 0 <= x178 <= 1
 0 <= x179 <= 1
 0 <= x180 <= 1
 0 <= x181 <= 1
 0 <= x182 <= 1
 0 <= x183 <= 1
 0 <= x184 <= 1
 0 <= x185 <= 1
 0 <= x186 <= 1
 0 <= x187 <= 1
 0 <= x188 <= 1
 0 <= x189 <= 1
 0 <= x190 <= 1
 0 <= x191 <= 1
 0 <= x192 <= 1
 0 <= x193 <= 1
 0 <= x194 <= 1
 0 <= x195 <= 1
 0 <= x196 <= 1
 0 <= x197 <= 1
 0 <= x198 <= 1
 0 <= x199 <= 1
 0 <= x200 <= 1
 0 <= x201 <= 1
 0 <= x202 <= 1
 0 <= x203 <= 1
 0 <= x204 <= 1
 0 <= x205 <= 1
 0 <= x206 <= 1
 0 <= x207 <= 1
 0 <= x208 <= 1
 0 <= x209 <= 1
 0 <= x210 <= 1
 0 <= x211 <= 1
 0 <= x212 <= 1
 0 <= x213 <= 1
 0 <= x214 <= 1
 0 <= x215 <= 1
 0 <= x216 <= 1
 0 <= x217 <= 1
 0 <= x218 <= 1
 0 <= x219 <= 1
 0 <= x220 <= 1
 0 <= x221 <= 1
 0 <= x222 <= 1
 0 <= x223 <= 1
 0 <= x224 <= 1
 0 <= x225 <= 1
 0 <= x226 <= 1
 0 <= x227 <= 1
 0 <= x228 <= 1
 0 <= x229 <= 1
 0 <= x230 <= 1
 0 <= x231 <= 1
 0 <= x232 <= 1
 0 <= x233 <= 1
 0 <= x234 <= 1
 0 <= x235 <= 1
 0 <= x236 <= 1
 0 <= x237 <= 1
 0 <= x238 <= 1
 0 <= x239 <= 1
 0 <= x240 <= 1
 0 <= x241 <= 1
 0 <= x242 <= 1
 0 <= x243 <= 1
 0 <= x244 <= 1
 0 <= x245 <= 1
 0 <= x246 <= 1
 0 <= x247 <= 1
 0 <= x248 <= 1
 0 <= x249 <= 1
 0 <= x250 <= 1
 0 <= x251 <= 1
 0 <= x252 <= 1
 0 <= x253 <= 1
 0 <= x254 <= 1
 0 <= x255 <= 1
 0 <= x256 <= 1
 0 <= x257 <= 1
 0 <= x258 <= 1
 0 <= x259 <= 1
 0 <= x260 <= 1
 0 <= x261 <= 1
 0 <= x262 <= 1
 0 <= x263 <= 1
 0 <= x264 <= 1
 0 <= x265 <= 1
 0 <= x266 <= 1
 0 <= x267 <= 1
 0 <= x268 <= 1
 0 <= x269 <= 1
 0 <= x270 <= 1
 0 <= x271 <= 1
 0 <= x272 <= 1
 0 <= x273 <= 1
 0 <= x274 <= 1
 0 <= x275 <= 1
 0 <= x276 <= 1
 0 <= x277 <= 1
 0 <= x278 <= 1
 0 <= x279 <= 1
 0 <= x280 <= 1
 0 <= x281 <= 1
 0 <= x282 <= 1
 0 <= x283 <= 1
 0 <= x284 <= 1
 0 <= x285 <= 1
 0 <= x286 <= 1
 0 <= x287 <= 1
 0 <= x288 <= 1
 0 <= x289 <= 1
 0 <= x290 <= 1
 0 <= x291 <= 1
 0 <= x292 <= 1
 0 <= x293 <= 1
 0 <= x294 <= 1
 0 <= x295 <= 1
 0 <= x296 <= 1
 0 <= x297 <= 1
 0 <= x298 <= 1
 0 <= x299 <= 1
 0 <= x300 <= 1
 0 <= x301 <= 1
 0 <= x302 <= 1
 0 <= x303 <= 1
 0 <= x304 <= 1
 0 <= x305 <= 1
 0 <= x306 <= 1
 0 <= x307 <= 1
 0 <= x308 <= 1
 0 <= x309 <= 1
 0 <= x310 <= 1
 0 <= x311 <= 1
 0 <= x312 <= 1
 0 <= x313 <= 1
 0 <= x314 <= 1
 0 <= x315 <= 1
 0 <= x316 <= 1
 0 <= x317 <= 1
 0 <= x318 <= 1
 0 <= x319 <= 1
 0 <= x320 <= 1
 0 <= x321 <= 1
 0 <= x322 <= 1
 0 <= x323 <= 1
 0 <= x324 <= 1
 0 <= x325 <= 1
 0 <= x326 <= 1
 0 <= x327 <= 1
 0 <= x328 <= 1
 0 <= x329 <= 1
 0 <= x330 <= 1
 0 <= x331 <= 1
 0 <= x332 <= 1
 0 <= x333 <= 1
 0 <= x334 <= 1
 0 <= x335 <= 1
 0 <= x336 <= 1
 0 <= x337 <= 1
 0 <= x338 <= 1
 0 <= x339 <= 1
 0 <= x340 <= 1
 0 <= x341 <= 1
 0 <= x342 <= 1
 0 <= x343 <= 1
 0 <= x344 <= 1
 0 <= x345 <= 1
 0 <= x346 <= 1
 0 <= x347 <= 1
 0 <= x348 <= 1
 0 <= x349 <= 1
 0 <= x350 <= 1
 0 <= x351 <= 1
 0 <= x352 <= 1
 0 <= x353 <= 1
 0 <= x354 <= 1
 0 <= x355 <= 1
 0 <= x356 <= 1
 0 <= x357 <= 1
 0 <= x358 <= 1
 0 <= x359 <= 1
 0 <= x360 <= 1
Binaries
 x301  x302  x303  x304  x305  x306  x307  x308  x309  x310  x311  x312  x313 
 x314  x315  x316  x317  x318  x319  x320  x321  x322  x323  x324  x325  x326 
 x327  x328  x329  x330  x331  x332  x333  x334  x335  x336  x337  x338  x339 
 x340  x341  x342  x343  x344  x345  x346  x347  x348  x349  x350  x351  x352 
 x353  x354  x355  x356  x357  x358  x359  x360 
End
